Maximize
  0.00450525861226965 Z_385_0_0 + 0.0250357627463475 Z_385_0_1
   + 0.0057078941938369 Z_385_0_2 + 0.000445324 Z_385_0_3
   + 0.8643057605078817 Z_385_0_4
Subject To
 constraint1_3850: Z_385_0_0 + Z_385_0_1 + Z_385_0_2 + Z_385_0_3
   + Z_385_0_4 <= 1
 constraint2_3850: Z_385_0_0 <= 1
 constraint2_3851: Z_385_0_1 <= 1
 constraint2_3852: Z_385_0_2 <= 1
 constraint2_3853: Z_385_0_3 <= 1
 constraint2_3730: <= 1
 constraint2_3731: <= 1
 constraint2_3732: <= 1
 constraint2_3733: <= 1
Bounds
Binaries
 Z_385_0_0 Z_385_0_1 Z_385_0_2 Z_385_0_3 Z_385_0_4
End
